inputs/486.in
14
0 9 43 51 5 1 53 81 72 23 69 70 94 72 
9 0 97 42 40 51 3 40 65 2 30 51 64 43 
43 97 0 14 80 65 50 6 23 86 59 25 46 8 
51 42 14 0 19 4 77 36 23 36 91 41 26 36 
5 40 80 19 0 25 80 88 8 40 82 67 10 42 
1 51 65 4 25 0 94 75 26 31 72 72 63 90 
53 3 50 77 80 94 0 77 81 4 69 16 91 41 
81 40 6 36 88 75 77 0 59 57 79 47 59 95 
72 65 23 23 8 26 81 59 0 59 91 40 52 78 
23 2 86 36 40 31 4 57 59 0 58 26 40 98 
69 30 59 91 82 72 69 79 91 58 0 49 77 80 
70 51 25 41 67 72 16 47 40 26 49 0 69 27 
94 64 46 26 10 63 91 59 52 40 77 69 0 84 
72 43 8 36 42 90 41 95 78 98 80 27 84 0 
RRRBBRBBBRRBRB
