output/486.out
11 2 10 7 12 14 3 8 4 9 6 1 5 13 
